
  32    4
  10   10   10   10

   0   0   0   0   0  13 2 3 4 5 7 9 11 16 19 28 29 30 31 
  10  10  10  10  10   5 25 18 14 13 6 
  10  10  10  10  10   5 27 18 17 13 10 
   3  10  10  10  10   4 26 22 18 15 
  10  10  10  10  10   2 26 8 
   5  10  10  10  10   3 24 22 12 
   9  10  10  10  10   3 22 21 12 
   5  10  10  10  10   3 23 21 15 
   6  10  10  10  10   2 22 12 
   1  10  10  10  10   4 25 24 21 20 
   8  10  10  10  10   3 24 22 21 
   8  10  10  10  10   1 15 
   7  10  10  10  10   2 22 21 
   4  10  10  10  10   2 24 21 
   8  10  10  10  10   1 17 
   7  10  10  10  10   1 18 
   1  10  10  10  10   1 20 
   2  10  10  10  10   1 23 
   9  10  10  10  10   1 21 
   7  10  10  10  10   1 32
   1  10  10  10  10   1 32
   6  10  10  10  10   1 32
   4  10  10  10  10   1 32
   8  10  10  10  10   1 32
   8  10  10  10  10   1 32
   7  10  10  10  10   1 32
   8  10  10  10  10   1 32
   8  10  10  10  10   1 32
   5  10  10  10  10   1 32
   9  10  10  10  10   1 32
  10  10  10  10  10   1 32
   0   0   0   0   0   0 
